296808
296808
296808
296808
296808
296808
291741
291741
291741
291741
291741
291741
291741
284571
284571
284083
284083
284083
284083
284083
284053
284053
283763
283763
278225
278225
278225
278225
278225
273581
273581
273581
273581
273581
271339
271339
271339
271339
271339
271339
271339
271339
271339
271339
271339
271339
271339
271339
268453
268453
268453
266812
259660
259660
259660
259660
259660
259660
259660
259660
259660
259660
259660
259660
259660
259660
259660
259660
259660
258102
258102
258102
255849
255849
255849
255849
254774
254774
254774
254774
254774
254621
254621
254621
254621
252859
250774
250774
250774
250774
247687
247687
247687
247687
242169
242169
242169
242169
242169
242169
